\ENCODING=ISO-8859-1
\Problem name: ilog.cplex

Minimize
 obj1: 94959 x1 + 109806 x2 + 104436 x3 + 106527 x4 + 97027 x5 + 108068 x6
       + 100976 x7 + 95377 x8 + 90123 x9 + 109045 x10 + 96724 x11 + 90829 x12
       + 99085 x13 + 109405 x14 + 95952 x15 + 103765 x16 + 100876 x17
       + 103120 x18 + 95153 x19 + 101759 x20 + 109562 x21 + 90013 x22
       + 109858 x23 + 95016 x24 + 96740 x25 + 96845 x26 + 90235 x27 + 94317 x28
       + 104620 x29 + 90291 x30 + 91333 x31 + 96848 x32 + 102716 x33
       + 96912 x34 + 92947 x35 + 99452 x36 + 108508 x37 + 101690 x38
       + 98738 x39 + 93026 x40 + 97453 x41 + 93730 x42 + 104638 x43 + 96703 x44
       + 108358 x45 + 105396 x46 + 92467 x47 + 105903 x48 + 106413 x49
       + 109476 x50 + 96306 x51 + 94474 x52 + 98069 x53 + 97881 x54
       + 106372 x55 + 107881 x56 + 99461 x57 + 104917 x58 + 97959 x59
       + 91758 x60 + 98116 x61 + 107347 x62 + 102591 x63 + 103754 x64
       + 100152 x65 + 104007 x66 + 98497 x67 + 90251 x68 + 105789 x69
       + 96529 x70 + 108934 x71 + 103627 x72 + 109982 x73 + 98033 x74
       + 98647 x75 + 104476 x76 + 106294 x77 + 106792 x78 + 102908 x79
       + 97105 x80 + 109367 x81 + 90114 x82 + 102027 x83 + 105185 x84
       + 101641 x85 + 101108 x86 + 103737 x87 + 90017 x88 + 90054 x89
       + 100847 x90 + 100589 x91 + 97606 x92 + 101424 x93 + 102202 x94
       + 95303 x95 + 99798 x96 + 98848 x97 + 91010 x98 + 93439 x99 + 99470 x100
       + 105675 x101 + 95272 x102 + 109795 x103 + 100082 x104 + 98474 x105
       + 103715 x106 + 102644 x107 + 95835 x108 + 95930 x109 + 101311 x110
       + 98184 x111 + 100313 x112 + 106677 x113 + 91268 x114 + 96529 x115
       + 98639 x116 + 105840 x117 + 90493 x118 + 100110 x119 + 101045 x120
       + 94190 x121 + 107646 x122 + 90071 x123 + 90743 x124 + 90661 x125
       + 92988 x126 + 100873 x127 + 100736 x128 + 106780 x129 + 95864 x130
       + 106238 x131 + 107210 x132 + 94191 x133 + 100810 x134 + 95236 x135
       + 90073 x136 + 91640 x137 + 94480 x138 + 104415 x139 + 102166 x140
       + 109956 x141 + 93879 x142 + 97000 x143 + 92397 x144 + 95441 x145
       + 99021 x146 + 97400 x147 + 97076 x148 + 94718 x149 + 98542 x150
       + 108863 x151 + 94393 x152 + 107528 x153 + 109787 x154 + 95851 x155
       + 92798 x156 + 103060 x157 + 98518 x158 + 102127 x159 + 100462 x160
       + 90110 x161 + 97609 x162 + 100547 x163 + 100039 x164 + 91679 x165
       + 108972 x166 + 91209 x167 + 90646 x168 + 100594 x169 + 108442 x170
       + 100877 x171 + 97260 x172 + 104313 x173 + 99458 x174 + 108476 x175
       + 106662 x176 + 104274 x177 + 98122 x178 + 109013 x179 + 108618 x180
       + 101140 x181 + 100573 x182 + 93621 x183 + 104230 x184 + 99511 x185
       + 96333 x186 + 106152 x187 + 98776 x188 + 90126 x189 + 91051 x190
       + 102130 x191 + 106805 x192 + 92315 x193 + 100545 x194 + 95806 x195
       + 98578 x196 + 93939 x197 + 102367 x198 + 94281 x199 + 105967 x200
       + 109879 x201 + 93903 x202 + 91674 x203 + 93363 x204 + 96456 x205
       + 102410 x206 + 92865 x207 + 91344 x208 + 99368 x209 + 100346 x210
       + 98180 x211 + 96220 x212 + 97908 x213 + 92801 x214 + 103343 x215
       + 102360 x216 + 94029 x217 + 102926 x218 + 102640 x219 + 93598 x220
       + 101253 x221 + 105962 x222 + 107504 x223 + 95033 x224 + 95449 x225
       + 92798 x226 + 107542 x227 + 97166 x228 + 97220 x229 + 99958 x230
       + 106579 x231 + 90634 x232 + 103897 x233 + 104471 x234 + 102335 x235
       + 91626 x236 + 98093 x237 + 109327 x238 + 105157 x239 + 95653 x240
       + 90445 x241 + 95310 x242 + 95080 x243 + 92207 x244 + 107528 x245
       + 100566 x246 + 93883 x247 + 97040 x248 + 96448 x249 + 100966 x250
       + 102088 x251 + 100563 x252 + 105590 x253 + 95437 x254 + 91201 x255
       + 101320 x256 + 109229 x257 + 98284 x258 + 97063 x259 + 91177 x260
       + 91679 x261 + 99106 x262 + 104982 x263 + 95566 x264 + 106333 x265
       + 91152 x266 + 105317 x267 + 93480 x268 + 109881 x269 + 103523 x270
       + 103204 x271 + 91383 x272 + 90161 x273 + 107780 x274 + 109524 x275
       + 98175 x276 + 99841 x277 + 105357 x278 + 109333 x279 + 91986 x280
       + 97554 x281 + 98570 x282 + 98676 x283 + 103789 x284 + 103102 x285
       + 105068 x286 + 101006 x287 + 107699 x288 + 94004 x289 + 93283 x290
       + 100437 x291 + 103318 x292 + 106930 x293 + 94675 x294 + 100603 x295
       + 101577 x296 + 99451 x297 + 107560 x298 + 95104 x299 + 102289 x300
       + 98983 x301 + 97617 x302 + 93896 x303 + 94366 x304 + 104560 x305
       + 99894 x306 + 102618 x307 + 93981 x308 + 99957 x309 + 105824 x310
       + 97133 x311 + 93079 x312 + 107207 x313 + 95385 x314 + 101132 x315
       + 106689 x316 + 98187 x317 + 107263 x318 + 99558 x319 + 107255 x320
       + 90796 x321 + 95418 x322 + 97604 x323 + 90695 x324 + 95433 x325
       + 92651 x326 + 105670 x327 + 96455 x328 + 96402 x329 + 106791 x330
       + 103475 x331 + 95515 x332 + 105203 x333 + 103244 x334 + 101720 x335
       + 93814 x336 + 105671 x337 + 91449 x338 + 105500 x339 + 97592 x340
       + 104546 x341 + 92141 x342 + 90068 x343 + 91879 x344 + 105279 x345
       + 97371 x346 + 106625 x347 + 93696 x348 + 97754 x349 + 105861 x350
       + 103472 x351 + 97474 x352 + 102095 x353 + 102555 x354 + 96184 x355
       + 91803 x356 + 100824 x357 + 93107 x358 + 109350 x359 + 93792 x360
       + 100201 x361 + 100502 x362 + 92708 x363 + 99125 x364 + 92920 x365
       + 97456 x366 + 109111 x367 + 102047 x368 + 100484 x369 + 106734 x370
       + 97669 x371 + 102715 x372 + 106995 x373 + 98800 x374 + 100037 x375
       + 97954 x376 + 95173 x377 + 102352 x378 + 97288 x379 + 93243 x380
       + 91203 x381 + 99539 x382 + 90308 x383 + 98453 x384 + 105638 x385
       + 98837 x386 + 104294 x387 + 92057 x388 + 96809 x389 + 103014 x390
       + 108312 x391 + 104811 x392 + 101043 x393 + 91959 x394 + 98962 x395
       + 109130 x396 + 97437 x397 + 93148 x398 + 91002 x399 + 96154 x400
       + 104012 x401 + 96153 x402 + 107150 x403 + 98921 x404 + 96798 x405
       + 101793 x406 + 104325 x407 + 97152 x408 + 103712 x409 + 101439 x410
       + 94221 x411 + 96773 x412 + 91060 x413 + 97431 x414 + 92375 x415
       + 95652 x416 + 92071 x417 + 101719 x418 + 101796 x419 + 105926 x420
       + 102841 x421 + 103818 x422 + 108287 x423 + 99293 x424 + 90230 x425
       + 98688 x426 + 103909 x427 + 96439 x428 + 93523 x429 + 106058 x430
       + 107361 x431 + 107204 x432 + 92627 x433 + 92221 x434 + 93402 x435
       + 100074 x436 + 109076 x437 + 108082 x438 + 105492 x439 + 94071 x440
       + 104482 x441 + 109537 x442 + 105204 x443 + 94359 x444 + 90683 x445
       + 107119 x446 + 91655 x447 + 94099 x448 + 95847 x449 + 91682 x450
       + 101179 x451 + 98773 x452 + 95394 x453 + 90726 x454 + 109859 x455
       + 97375 x456 + 101729 x457 + 103427 x458 + 104476 x459 + 108609 x460
       + 92620 x461 + 101521 x462 + 101107 x463 + 109635 x464 + 104446 x465
       + 107879 x466 + 94785 x467 + 109942 x468 + 103619 x469 + 94974 x470
       + 98532 x471 + 103538 x472 + 97142 x473 + 101365 x474 + 95559 x475
       + 98949 x476 + 91566 x477 + 105934 x478 + 104528 x479 + 108396 x480
       + 95038 x481 + 94770 x482 + 104629 x483 + 103723 x484 + 90321 x485
       + 94071 x486 + 108702 x487 + 103802 x488 + 102243 x489 + 100633 x490
       + 107803 x491 + 90606 x492 + 99727 x493 + 103244 x494 + 98176 x495
       + 91014 x496 + 98332 x497 + 102916 x498 + 95732 x499 + 95641 x500
       + 108159 x501 + 98704 x502 + 100874 x503 + 97613 x504 + 96089 x505
       + 109896 x506 + 90791 x507 + 98698 x508 + 101388 x509 + 106689 x510
       + 106321 x511 + 105858 x512 + 106213 x513 + 95990 x514 + 98292 x515
       + 103626 x516 + 100730 x517 + 104175 x518 + 101716 x519 + 100705 x520
       + 96294 x521 + 94429 x522 + 95299 x523 + 92804 x524 + 109545 x525
       + 92727 x526 + 98422 x527 + 97964 x528 + 105319 x529 + 93551 x530
       + 98100 x531 + 105483 x532 + 106860 x533 + 94134 x534 + 104359 x535
       + 95044 x536 + 98160 x537 + 104299 x538 + 104073 x539 + 108764 x540
       + 95614 x541 + 109493 x542 + 91502 x543 + 108619 x544 + 95027 x545
       + 93744 x546 + 95762 x547 + 104698 x548 + 104508 x549 + 91612 x550
       + 106509 x551 + 102881 x552 + 104646 x553 + 96240 x554 + 103018 x555
       + 90943 x556 + 94210 x557 + 105575 x558 + 103763 x559 + 102953 x560
       + 97821 x561 + 91507 x562 + 92244 x563 + 97444 x564 + 109234 x565
       + 100150 x566 + 108893 x567 + 106268 x568 + 104340 x569 + 97594 x570
       + 108966 x571 + 101538 x572 + 99737 x573 + 108009 x574 + 90890 x575
       + 95891 x576 + 105123 x577 + 99089 x578 + 104692 x579 + 104756 x580
       + 100687 x581 + 93621 x582 + 95967 x583 + 98394 x584 + 104354 x585
       + 105345 x586 + 107244 x587 + 96198 x588 + 97921 x589 + 92295 x590
       + 105656 x591 + 106037 x592 + 96038 x593 + 91456 x594 + 93524 x595
       + 107442 x596 + 107415 x597 + 104835 x598 + 106737 x599 + 233554 x600
       + 38351 x601 + 37257 x602 + 36001 x603 + 43659 x604 + 41072 x605
       + 43333 x606 + 39544 x607 + 42816 x608 + 37633 x609 + 36935 x610
       + 43905 x611 + 36003 x612 + 40515 x613 + 38810 x614 + 42489 x615
       + 37329 x616 + 43995 x617 + 42423 x618 + 36038 x619 + 40466 x620
       + 40256 x621 + 38828 x622 + 42284 x623 + 43449 x624 + 41610 x625
       + 37268 x626 + 41531 x627 + 36462 x628 + 41523 x629 + 36242 x630
       + 38369 x631 + 38397 x632 + 41446 x633 + 43553 x634 + 37489 x635
       + 40105 x636 + 41510 x637 + 38352 x638 + 41972 x639 + 43136 x640
       + 40975 x641 + 37458 x642 + 41637 x643 + 40406 x644 + 42907 x645
       + 36223 x646 + 38966 x647 + 41612 x648 + 38844 x649 + 36994 x650
       + 36847 x651 + 37333 x652 + 43316 x653 + 39714 x654 + 41772 x655
       + 41664 x656 + 38882 x657 + 37474 x658 + 38382 x659 + 46238 x660
Subject To
 c1:   - x1 + x2 - x5 - x7 + x26 + x41 + x46 - x50  = 0
 c2:   - x61 + x62 - x65 - x67 + x86 + x101 + x106 - x110  = 0
 c3:   - x121 + x122 - x125 - x127 + x146 + x161 + x166 - x170  = 0
 c4:   - x181 + x182 - x185 - x187 + x206 + x221 + x226 - x230  = 0
 c5:   - x241 + x242 - x245 - x247 + x266 + x281 + x286 - x290  = 0
 c6:   - x301 + x302 - x305 - x307 + x326 + x341 + x346 - x350  = 0
 c7:   - x361 + x362 - x365 - x367 + x386 + x401 + x406 - x410  = 0
 c8:   - x421 + x422 - x425 - x427 + x446 + x461 + x466 - x470  = 0
 c9:   - x481 + x482 - x485 - x487 + x506 + x521 + x526 - x530  = 0
 c10:  - x541 + x542 - x545 - x547 + x566 + x581 + x586 - x590  = 0
 c11:  x4 + x20 - x58 + x59  = 0
 c12:  x64 + x80 - x118 + x119  = 0
 c13:  x124 + x140 - x178 + x179  = 0
 c14:  x184 + x200 - x238 + x239  = -1
 c15:  x244 + x260 - x298 + x299  = 0
 c16:  x304 + x320 - x358 + x359  = 0
 c17:  x364 + x380 - x418 + x419  = 0
 c18:  x424 + x440 - x478 + x479  = 0
 c19:  x484 + x500 - x538 + x539  = 0
 c20:  x544 + x560 - x598 + x599  = 0
 c21:  x8 - x12 + x16 + x31 + x48 - x56  = -1
 c22:  x68 - x72 + x76 + x91 + x108 - x116  = 0
 c23:  x128 - x132 + x136 + x151 + x168 - x176  = 0
 c24:  x188 - x192 + x196 + x211 + x228 - x236  = 0
 c25:  x248 - x252 + x256 + x271 + x288 - x296  = 0
 c26:  x308 - x312 + x316 + x331 + x348 - x356  = 0
 c27:  x368 - x372 + x376 + x391 + x408 - x416  = 0
 c28:  x428 - x432 + x436 + x451 + x468 - x476  = 0
 c29:  x488 - x492 + x496 + x511 + x528 - x536  = 0
 c30:  x548 - x552 + x556 + x571 + x588 - x596  = 0
 c31:  x1 - x2 - x3 - x8 + x29 - x34 - x37 + x55 + x60  = 1
 c32:  x61 - x62 - x63 - x68 + x89 - x94 - x97 + x115 + x120  = 0
 c33:  x121 - x122 - x123 - x128 + x149 - x154 - x157 + x175 + x180  = 0
 c34:  x181 - x182 - x183 - x188 + x209 - x214 - x217 + x235 + x240  = 0
 c35:  x241 - x242 - x243 - x248 + x269 - x274 - x277 + x295 + x300  = 0
 c36:  x301 - x302 - x303 - x308 + x329 - x334 - x337 + x355 + x360  = 0
 c37:  x361 - x362 - x363 - x368 + x389 - x394 - x397 + x415 + x420  = 0
 c38:  x421 - x422 - x423 - x428 + x449 - x454 - x457 + x475 + x480  = 0
 c39:  x481 - x482 - x483 - x488 + x509 - x514 - x517 + x535 + x540  = 0
 c40:  x541 - x542 - x543 - x548 + x569 - x574 - x577 + x595 + x600  = 0
 c41:  x7 + x11 - x21 - x25 - x27 - x38 + x39 + x45 + x51  = 0
 c42:  x67 + x71 - x81 - x85 - x87 - x98 + x99 + x105 + x111  = 0
 c43:  x127 + x131 - x141 - x145 - x147 - x158 + x159 + x165 + x171  = -1
 c44:  x187 + x191 - x201 - x205 - x207 - x218 + x219 + x225 + x231  = 0
 c45:  x247 + x251 - x261 - x265 - x267 - x278 + x279 + x285 + x291  = 0
 c46:  x307 + x311 - x321 - x325 - x327 - x338 + x339 + x345 + x351  = 0
 c47:  x367 + x371 - x381 - x385 - x387 - x398 + x399 + x405 + x411  = 0
 c48:  x427 + x431 - x441 - x445 - x447 - x458 + x459 + x465 + x471  = 0
 c49:  x487 + x491 - x501 - x505 - x507 - x518 + x519 + x525 + x531  = 0
 c50:  x547 + x551 - x561 - x565 - x567 - x578 + x579 + x585 + x591  = 0
 c51:  x10 - x16 + x17 - x40 + x54 + x57  = 0
 c52:  x70 - x76 + x77 - x100 + x114 + x117  = 0
 c53:  x130 - x136 + x137 - x160 + x174 + x177  = 0
 c54:  x190 - x196 + x197 - x220 + x234 + x237  = 0
 c55:  x250 - x256 + x257 - x280 + x294 + x297  = 0
 c56:  x310 - x316 + x317 - x340 + x354 + x357  = 0
 c57:  x370 - x376 + x377 - x400 + x414 + x417  = 0
 c58:  x430 - x436 + x437 - x460 + x474 + x477  = 0
 c59:  x490 - x496 + x497 - x520 + x534 + x537  = 0
 c60:  x550 - x556 + x557 - x580 + x594 + x597  = 1
 c61:  - x4 + x5 + x13 - x19 + x23 - x26 - x36 + x44 + x58 - x60  = 0
 c62:  - x64 + x65 + x73 - x79 + x83 - x86 - x96 + x104 + x118 - x120  = 1
 c63:  - x124 + x125 + x133 - x139 + x143 - x146 - x156 + x164 + x178 - x180
        = 1
 c64:  - x184 + x185 + x193 - x199 + x203 - x206 - x216 + x224 + x238 - x240
        = 0
 c65:  - x244 + x245 + x253 - x259 + x263 - x266 - x276 + x284 + x298 - x300
        = 1
 c66:  - x304 + x305 + x313 - x319 + x323 - x326 - x336 + x344 + x358 - x360
        = -1
 c67:  - x364 + x365 + x373 - x379 + x383 - x386 - x396 + x404 + x418 - x420
        = 0
 c68:  - x424 + x425 + x433 - x439 + x443 - x446 - x456 + x464 + x478 - x480
        = 0
 c69:  - x484 + x485 + x493 - x499 + x503 - x506 - x516 + x524 + x538 - x540
        = 0
 c70:  - x544 + x545 + x553 - x559 + x563 - x566 - x576 + x584 + x598 - x600
        = 0
 c71:  x19 - x46 - x49 + x52 - x59  = 0
 c72:  x79 - x106 - x109 + x112 - x119  = 0
 c73:  x139 - x166 - x169 + x172 - x179  = 0
 c74:  x199 - x226 - x229 + x232 - x239  = 1
 c75:  x259 - x286 - x289 + x292 - x299  = 0
 c76:  x319 - x346 - x349 + x352 - x359  = 0
 c77:  x379 - x406 - x409 + x412 - x419  = 0
 c78:  x439 - x466 - x469 + x472 - x479  = 0
 c79:  x499 - x526 - x529 + x532 - x539  = 0
 c80:  x559 - x586 - x589 + x592 - x599  = -1
 c81:  - x6 - x24 + x25 - x28 - x35 + x43 - x47 + x53 - x55  = 0
 c82:  - x66 - x84 + x85 - x88 - x95 + x103 - x107 + x113 - x115  = -1
 c83:  - x126 - x144 + x145 - x148 - x155 + x163 - x167 + x173 - x175  = 0
 c84:  - x186 - x204 + x205 - x208 - x215 + x223 - x227 + x233 - x235  = 0
 c85:  - x246 - x264 + x265 - x268 - x275 + x283 - x287 + x293 - x295  = 0
 c86:  - x306 - x324 + x325 - x328 - x335 + x343 - x347 + x353 - x355  = 0
 c87:  - x366 - x384 + x385 - x388 - x395 + x403 - x407 + x413 - x415  = 1
 c88:  - x426 - x444 + x445 - x448 - x455 + x463 - x467 + x473 - x475  = 0
 c89:  - x486 - x504 + x505 - x508 - x515 + x523 - x527 + x533 - x535  = 0
 c90:  - x546 - x564 + x565 - x568 - x575 + x583 - x587 + x593 - x595  = 0
 c91:  x3 + x9 - x10 + x21 + x22 + x24 - x29 - x32 + x40 - x41 - x51 - x52
       + x56  = 0
 c92:  x63 + x69 - x70 + x81 + x82 + x84 - x89 - x92 + x100 - x101 - x111
       - x112 + x116  = 0
 c93:  x123 + x129 - x130 + x141 + x142 + x144 - x149 - x152 + x160 - x161
       - x171 - x172 + x176  = 0
 c94:  x183 + x189 - x190 + x201 + x202 + x204 - x209 - x212 + x220 - x221
       - x231 - x232 + x236  = 0
 c95:  x243 + x249 - x250 + x261 + x262 + x264 - x269 - x272 + x280 - x281
       - x291 - x292 + x296  = 0
 c96:  x303 + x309 - x310 + x321 + x322 + x324 - x329 - x332 + x340 - x341
       - x351 - x352 + x356  = 0
 c97:  x363 + x369 - x370 + x381 + x382 + x384 - x389 - x392 + x400 - x401
       - x411 - x412 + x416  = -1
 c98:  x423 + x429 - x430 + x441 + x442 + x444 - x449 - x452 + x460 - x461
       - x471 - x472 + x476  = 0
 c99:  x483 + x489 - x490 + x501 + x502 + x504 - x509 - x512 + x520 - x521
       - x531 - x532 + x536  = 0
 c100: x543 + x549 - x550 + x561 + x562 + x564 - x569 - x572 + x580 - x581
       - x591 - x592 + x596  = 0
 c101: x12 - x13 + x14 - x18 - x20 + x28 + x30 - x33 + x37 - x43 - x48 - x54
        = 0
 c102: x72 - x73 + x74 - x78 - x80 + x88 + x90 - x93 + x97 - x103 - x108 - x114
        = 0
 c103: x132 - x133 + x134 - x138 - x140 + x148 + x150 - x153 + x157 - x163
       - x168 - x174  = 0
 c104: x192 - x193 + x194 - x198 - x200 + x208 + x210 - x213 + x217 - x223
       - x228 - x234  = 0
 c105: x252 - x253 + x254 - x258 - x260 + x268 + x270 - x273 + x277 - x283
       - x288 - x294  = 0
 c106: x312 - x313 + x314 - x318 - x320 + x328 + x330 - x333 + x337 - x343
       - x348 - x354  = 0
 c107: x372 - x373 + x374 - x378 - x380 + x388 + x390 - x393 + x397 - x403
       - x408 - x414  = 0
 c108: x432 - x433 + x434 - x438 - x440 + x448 + x450 - x453 + x457 - x463
       - x468 - x474  = 0
 c109: x492 - x493 + x494 - x498 - x500 + x508 + x510 - x513 + x517 - x523
       - x528 - x534  = -1
 c110: x552 - x553 + x554 - x558 - x560 + x568 + x570 - x573 + x577 - x583
       - x588 - x594  = 0
 c111: - x17 - x30 + x33 - x39 - x42 - x44  = 0
 c112: - x77 - x90 + x93 - x99 - x102 - x104  = 0
 c113: - x137 - x150 + x153 - x159 - x162 - x164  = 0
 c114: - x197 - x210 + x213 - x219 - x222 - x224  = 0
 c115: - x257 - x270 + x273 - x279 - x282 - x284  = 0
 c116: - x317 - x330 + x333 - x339 - x342 - x344  = 0
 c117: - x377 - x390 + x393 - x399 - x402 - x404  = 0
 c118: - x437 - x450 + x453 - x459 - x462 - x464  = -1
 c119: - x497 - x510 + x513 - x519 - x522 - x524  = 0
 c120: - x557 - x570 + x573 - x579 - x582 - x584  = 0
 c121: x6 - x23 - x31 + x32 + x34 + x36 + x38 + x42 + x49  = 0
 c122: x66 - x83 - x91 + x92 + x94 + x96 + x98 + x102 + x109  = 0
 c123: x126 - x143 - x151 + x152 + x154 + x156 + x158 + x162 + x169  = 0
 c124: x186 - x203 - x211 + x212 + x214 + x216 + x218 + x222 + x229  = 0
 c125: x246 - x263 - x271 + x272 + x274 + x276 + x278 + x282 + x289  = 0
 c126: x306 - x323 - x331 + x332 + x334 + x336 + x338 + x342 + x349  = 1
 c127: x366 - x383 - x391 + x392 + x394 + x396 + x398 + x402 + x409  = 0
 c128: x426 - x443 - x451 + x452 + x454 + x456 + x458 + x462 + x469  = 1
 c129: x486 - x503 - x511 + x512 + x514 + x516 + x518 + x522 + x529  = 1
 c130: x546 - x563 - x571 + x572 + x574 + x576 + x578 + x582 + x589  = 0
 c131: - x9 - x14 - x15 + x18 + x35 - x45 - x53  = 0
 c132: - x69 - x74 - x75 + x78 + x95 - x105 - x113  = 0
 c133: - x129 - x134 - x135 + x138 + x155 - x165 - x173  = 0
 c134: - x189 - x194 - x195 + x198 + x215 - x225 - x233  = 0
 c135: - x249 - x254 - x255 + x258 + x275 - x285 - x293  = -1
 c136: - x309 - x314 - x315 + x318 + x335 - x345 - x353  = 0
 c137: - x369 - x374 - x375 + x378 + x395 - x405 - x413  = 0
 c138: - x429 - x434 - x435 + x438 + x455 - x465 - x473  = 0
 c139: - x489 - x494 - x495 + x498 + x515 - x525 - x533  = 0
 c140: - x549 - x554 - x555 + x558 + x575 - x585 - x593  = 0
 c141: - x11 + x15 - x22 + x27 + x47 + x50 - x57  = 0
 c142: - x71 + x75 - x82 + x87 + x107 + x110 - x117  = 0
 c143: - x131 + x135 - x142 + x147 + x167 + x170 - x177  = 0
 c144: - x191 + x195 - x202 + x207 + x227 + x230 - x237  = 0
 c145: - x251 + x255 - x262 + x267 + x287 + x290 - x297  = 0
 c146: - x311 + x315 - x322 + x327 + x347 + x350 - x357  = 0
 c147: - x371 + x375 - x382 + x387 + x407 + x410 - x417  = 0
 c148: - x431 + x435 - x442 + x447 + x467 + x470 - x477  = 0
 c149: - x491 + x495 - x502 + x507 + x527 + x530 - x537  = 0
 c150: - x551 + x555 - x562 + x567 + x587 + x590 - x597  = 0
 c151: 4 x1 + 4 x61 + 4 x121 + 4 x181 + 4 x241 + 4 x301 + 4 x361 + 4 x421
       + 4 x481 + 4 x541 - 19 x601 <= 0
 c152: 4 x2 + 4 x62 + 4 x122 + 4 x182 + 4 x242 + 4 x302 + 4 x362 + 4 x422
       + 4 x482 + 4 x542 - 22 x602 <= 0
 c153: 4 x3 + 4 x63 + 4 x123 + 4 x183 + 4 x243 + 4 x303 + 4 x363 + 4 x423
       + 4 x483 + 4 x543 - 19 x603 <= 0
 c154: 4 x4 + 4 x64 + 4 x124 + 4 x184 + 4 x244 + 4 x304 + 4 x364 + 4 x424
       + 4 x484 + 4 x544 - 20 x604 <= 0
 c155: 4 x5 + 4 x65 + 4 x125 + 4 x185 + 4 x245 + 4 x305 + 4 x365 + 4 x425
       + 4 x485 + 4 x545 - 19 x605 <= 0
 c156: 4 x6 + 4 x66 + 4 x126 + 4 x186 + 4 x246 + 4 x306 + 4 x366 + 4 x426
       + 4 x486 + 4 x546 - 18 x606 <= 0
 c157: 4 x7 + 4 x67 + 4 x127 + 4 x187 + 4 x247 + 4 x307 + 4 x367 + 4 x427
       + 4 x487 + 4 x547 - 19 x607 <= 0
 c158: 4 x8 + 4 x68 + 4 x128 + 4 x188 + 4 x248 + 4 x308 + 4 x368 + 4 x428
       + 4 x488 + 4 x548 - 19 x608 <= 0
 c159: 4 x9 + 4 x69 + 4 x129 + 4 x189 + 4 x249 + 4 x309 + 4 x369 + 4 x429
       + 4 x489 + 4 x549 - 20 x609 <= 0
 c160: 4 x10 + 4 x70 + 4 x130 + 4 x190 + 4 x250 + 4 x310 + 4 x370 + 4 x430
       + 4 x490 + 4 x550 - 22 x610 <= 0
 c161: 4 x11 + 4 x71 + 4 x131 + 4 x191 + 4 x251 + 4 x311 + 4 x371 + 4 x431
       + 4 x491 + 4 x551 - 21 x611 <= 0
 c162: 4 x12 + 4 x72 + 4 x132 + 4 x192 + 4 x252 + 4 x312 + 4 x372 + 4 x432
       + 4 x492 + 4 x552 - 19 x612 <= 0
 c163: 4 x13 + 4 x73 + 4 x133 + 4 x193 + 4 x253 + 4 x313 + 4 x373 + 4 x433
       + 4 x493 + 4 x553 - 22 x613 <= 0
 c164: 4 x14 + 4 x74 + 4 x134 + 4 x194 + 4 x254 + 4 x314 + 4 x374 + 4 x434
       + 4 x494 + 4 x554 - 19 x614 <= 0
 c165: 4 x15 + 4 x75 + 4 x135 + 4 x195 + 4 x255 + 4 x315 + 4 x375 + 4 x435
       + 4 x495 + 4 x555 - 21 x615 <= 0
 c166: 4 x16 + 4 x76 + 4 x136 + 4 x196 + 4 x256 + 4 x316 + 4 x376 + 4 x436
       + 4 x496 + 4 x556 - 18 x616 <= 0
 c167: 4 x17 + 4 x77 + 4 x137 + 4 x197 + 4 x257 + 4 x317 + 4 x377 + 4 x437
       + 4 x497 + 4 x557 - 21 x617 <= 0
 c168: 4 x18 + 4 x78 + 4 x138 + 4 x198 + 4 x258 + 4 x318 + 4 x378 + 4 x438
       + 4 x498 + 4 x558 - 20 x618 <= 0
 c169: 4 x19 + 4 x79 + 4 x139 + 4 x199 + 4 x259 + 4 x319 + 4 x379 + 4 x439
       + 4 x499 + 4 x559 - 18 x619 <= 0
 c170: 4 x20 + 4 x80 + 4 x140 + 4 x200 + 4 x260 + 4 x320 + 4 x380 + 4 x440
       + 4 x500 + 4 x560 - 20 x620 <= 0
 c171: 4 x21 + 4 x81 + 4 x141 + 4 x201 + 4 x261 + 4 x321 + 4 x381 + 4 x441
       + 4 x501 + 4 x561 - 19 x621 <= 0
 c172: 4 x22 + 4 x82 + 4 x142 + 4 x202 + 4 x262 + 4 x322 + 4 x382 + 4 x442
       + 4 x502 + 4 x562 - 20 x622 <= 0
 c173: 4 x23 + 4 x83 + 4 x143 + 4 x203 + 4 x263 + 4 x323 + 4 x383 + 4 x443
       + 4 x503 + 4 x563 - 20 x623 <= 0
 c174: 4 x24 + 4 x84 + 4 x144 + 4 x204 + 4 x264 + 4 x324 + 4 x384 + 4 x444
       + 4 x504 + 4 x564 - 18 x624 <= 0
 c175: 4 x25 + 4 x85 + 4 x145 + 4 x205 + 4 x265 + 4 x325 + 4 x385 + 4 x445
       + 4 x505 + 4 x565 - 18 x625 <= 0
 c176: 4 x26 + 4 x86 + 4 x146 + 4 x206 + 4 x266 + 4 x326 + 4 x386 + 4 x446
       + 4 x506 + 4 x566 - 20 x626 <= 0
 c177: 4 x27 + 4 x87 + 4 x147 + 4 x207 + 4 x267 + 4 x327 + 4 x387 + 4 x447
       + 4 x507 + 4 x567 - 20 x627 <= 0
 c178: 4 x28 + 4 x88 + 4 x148 + 4 x208 + 4 x268 + 4 x328 + 4 x388 + 4 x448
       + 4 x508 + 4 x568 - 21 x628 <= 0
 c179: 4 x29 + 4 x89 + 4 x149 + 4 x209 + 4 x269 + 4 x329 + 4 x389 + 4 x449
       + 4 x509 + 4 x569 - 21 x629 <= 0
 c180: 4 x30 + 4 x90 + 4 x150 + 4 x210 + 4 x270 + 4 x330 + 4 x390 + 4 x450
       + 4 x510 + 4 x570 - 22 x630 <= 0
 c181: 4 x31 + 4 x91 + 4 x151 + 4 x211 + 4 x271 + 4 x331 + 4 x391 + 4 x451
       + 4 x511 + 4 x571 - 19 x631 <= 0
 c182: 4 x32 + 4 x92 + 4 x152 + 4 x212 + 4 x272 + 4 x332 + 4 x392 + 4 x452
       + 4 x512 + 4 x572 - 22 x632 <= 0
 c183: 4 x33 + 4 x93 + 4 x153 + 4 x213 + 4 x273 + 4 x333 + 4 x393 + 4 x453
       + 4 x513 + 4 x573 - 22 x633 <= 0
 c184: 4 x34 + 4 x94 + 4 x154 + 4 x214 + 4 x274 + 4 x334 + 4 x394 + 4 x454
       + 4 x514 + 4 x574 - 22 x634 <= 0
 c185: 4 x35 + 4 x95 + 4 x155 + 4 x215 + 4 x275 + 4 x335 + 4 x395 + 4 x455
       + 4 x515 + 4 x575 - 21 x635 <= 0
 c186: 4 x36 + 4 x96 + 4 x156 + 4 x216 + 4 x276 + 4 x336 + 4 x396 + 4 x456
       + 4 x516 + 4 x576 - 21 x636 <= 0
 c187: 4 x37 + 4 x97 + 4 x157 + 4 x217 + 4 x277 + 4 x337 + 4 x397 + 4 x457
       + 4 x517 + 4 x577 - 21 x637 <= 0
 c188: 4 x38 + 4 x98 + 4 x158 + 4 x218 + 4 x278 + 4 x338 + 4 x398 + 4 x458
       + 4 x518 + 4 x578 - 21 x638 <= 0
 c189: 4 x39 + 4 x99 + 4 x159 + 4 x219 + 4 x279 + 4 x339 + 4 x399 + 4 x459
       + 4 x519 + 4 x579 - 21 x639 <= 0
 c190: 4 x40 + 4 x100 + 4 x160 + 4 x220 + 4 x280 + 4 x340 + 4 x400 + 4 x460
       + 4 x520 + 4 x580 - 21 x640 <= 0
 c191: 4 x41 + 4 x101 + 4 x161 + 4 x221 + 4 x281 + 4 x341 + 4 x401 + 4 x461
       + 4 x521 + 4 x581 - 20 x641 <= 0
 c192: 4 x42 + 4 x102 + 4 x162 + 4 x222 + 4 x282 + 4 x342 + 4 x402 + 4 x462
       + 4 x522 + 4 x582 - 18 x642 <= 0
 c193: 4 x43 + 4 x103 + 4 x163 + 4 x223 + 4 x283 + 4 x343 + 4 x403 + 4 x463
       + 4 x523 + 4 x583 - 20 x643 <= 0
 c194: 4 x44 + 4 x104 + 4 x164 + 4 x224 + 4 x284 + 4 x344 + 4 x404 + 4 x464
       + 4 x524 + 4 x584 - 20 x644 <= 0
 c195: 4 x45 + 4 x105 + 4 x165 + 4 x225 + 4 x285 + 4 x345 + 4 x405 + 4 x465
       + 4 x525 + 4 x585 - 21 x645 <= 0
 c196: 4 x46 + 4 x106 + 4 x166 + 4 x226 + 4 x286 + 4 x346 + 4 x406 + 4 x466
       + 4 x526 + 4 x586 - 18 x646 <= 0
 c197: 4 x47 + 4 x107 + 4 x167 + 4 x227 + 4 x287 + 4 x347 + 4 x407 + 4 x467
       + 4 x527 + 4 x587 - 19 x647 <= 0
 c198: 4 x48 + 4 x108 + 4 x168 + 4 x228 + 4 x288 + 4 x348 + 4 x408 + 4 x468
       + 4 x528 + 4 x588 - 19 x648 <= 0
 c199: 4 x49 + 4 x109 + 4 x169 + 4 x229 + 4 x289 + 4 x349 + 4 x409 + 4 x469
       + 4 x529 + 4 x589 - 21 x649 <= 0
 c200: 4 x50 + 4 x110 + 4 x170 + 4 x230 + 4 x290 + 4 x350 + 4 x410 + 4 x470
       + 4 x530 + 4 x590 - 21 x650 <= 0
 c201: 4 x51 + 4 x111 + 4 x171 + 4 x231 + 4 x291 + 4 x351 + 4 x411 + 4 x471
       + 4 x531 + 4 x591 - 20 x651 <= 0
 c202: 4 x52 + 4 x112 + 4 x172 + 4 x232 + 4 x292 + 4 x352 + 4 x412 + 4 x472
       + 4 x532 + 4 x592 - 18 x652 <= 0
 c203: 4 x53 + 4 x113 + 4 x173 + 4 x233 + 4 x293 + 4 x353 + 4 x413 + 4 x473
       + 4 x533 + 4 x593 - 20 x653 <= 0
 c204: 4 x54 + 4 x114 + 4 x174 + 4 x234 + 4 x294 + 4 x354 + 4 x414 + 4 x474
       + 4 x534 + 4 x594 - 21 x654 <= 0
 c205: 4 x55 + 4 x115 + 4 x175 + 4 x235 + 4 x295 + 4 x355 + 4 x415 + 4 x475
       + 4 x535 + 4 x595 - 19 x655 <= 0
 c206: 4 x56 + 4 x116 + 4 x176 + 4 x236 + 4 x296 + 4 x356 + 4 x416 + 4 x476
       + 4 x536 + 4 x596 - 22 x656 <= 0
 c207: 4 x57 + 4 x117 + 4 x177 + 4 x237 + 4 x297 + 4 x357 + 4 x417 + 4 x477
       + 4 x537 + 4 x597 - 20 x657 <= 0
 c208: 4 x58 + 4 x118 + 4 x178 + 4 x238 + 4 x298 + 4 x358 + 4 x418 + 4 x478
       + 4 x538 + 4 x598 - 20 x658 <= 0
 c209: 4 x59 + 4 x119 + 4 x179 + 4 x239 + 4 x299 + 4 x359 + 4 x419 + 4 x479
       + 4 x539 + 4 x599 - 21 x659 <= 0
 c210: 4 x60 + 4 x120 + 4 x180 + 4 x240 + 4 x300 + 4 x360 + 4 x420 + 4 x480
       + 4 x540 + 4 x600 - 16 x660 <= 0
Bounds
 0 <= x1 <= 1
 0 <= x2 <= 1
 0 <= x3 <= 1
 0 <= x4 <= 1
 0 <= x5 <= 1
 0 <= x6 <= 1
 0 <= x7 <= 1
 0 <= x8 <= 1
 0 <= x9 <= 1
 0 <= x10 <= 1
 0 <= x11 <= 1
 0 <= x12 <= 1
 0 <= x13 <= 1
 0 <= x14 <= 1
 0 <= x15 <= 1
 0 <= x16 <= 1
 0 <= x17 <= 1
 0 <= x18 <= 1
 0 <= x19 <= 1
 0 <= x20 <= 1
 0 <= x21 <= 1
 0 <= x22 <= 1
 0 <= x23 <= 1
 0 <= x24 <= 1
 0 <= x25 <= 1
 0 <= x26 <= 1
 0 <= x27 <= 1
 0 <= x28 <= 1
 0 <= x29 <= 1
 0 <= x30 <= 1
 0 <= x31 <= 1
 0 <= x32 <= 1
 0 <= x33 <= 1
 0 <= x34 <= 1
 0 <= x35 <= 1
 0 <= x36 <= 1
 0 <= x37 <= 1
 0 <= x38 <= 1
 0 <= x39 <= 1
 0 <= x40 <= 1
 0 <= x41 <= 1
 0 <= x42 <= 1
 0 <= x43 <= 1
 0 <= x44 <= 1
 0 <= x45 <= 1
 0 <= x46 <= 1
 0 <= x47 <= 1
 0 <= x48 <= 1
 0 <= x49 <= 1
 0 <= x50 <= 1
 0 <= x51 <= 1
 0 <= x52 <= 1
 0 <= x53 <= 1
 0 <= x54 <= 1
 0 <= x55 <= 1
 0 <= x56 <= 1
 0 <= x57 <= 1
 0 <= x58 <= 1
 0 <= x59 <= 1
 0 <= x60 <= 1
 0 <= x61 <= 1
 0 <= x62 <= 1
 0 <= x63 <= 1
 0 <= x64 <= 1
 0 <= x65 <= 1
 0 <= x66 <= 1
 0 <= x67 <= 1
 0 <= x68 <= 1
 0 <= x69 <= 1
 0 <= x70 <= 1
 0 <= x71 <= 1
 0 <= x72 <= 1
 0 <= x73 <= 1
 0 <= x74 <= 1
 0 <= x75 <= 1
 0 <= x76 <= 1
 0 <= x77 <= 1
 0 <= x78 <= 1
 0 <= x79 <= 1
 0 <= x80 <= 1
 0 <= x81 <= 1
 0 <= x82 <= 1
 0 <= x83 <= 1
 0 <= x84 <= 1
 0 <= x85 <= 1
 0 <= x86 <= 1
 0 <= x87 <= 1
 0 <= x88 <= 1
 0 <= x89 <= 1
 0 <= x90 <= 1
 0 <= x91 <= 1
 0 <= x92 <= 1
 0 <= x93 <= 1
 0 <= x94 <= 1
 0 <= x95 <= 1
 0 <= x96 <= 1
 0 <= x97 <= 1
 0 <= x98 <= 1
 0 <= x99 <= 1
 0 <= x100 <= 1
 0 <= x101 <= 1
 0 <= x102 <= 1
 0 <= x103 <= 1
 0 <= x104 <= 1
 0 <= x105 <= 1
 0 <= x106 <= 1
 0 <= x107 <= 1
 0 <= x108 <= 1
 0 <= x109 <= 1
 0 <= x110 <= 1
 0 <= x111 <= 1
 0 <= x112 <= 1
 0 <= x113 <= 1
 0 <= x114 <= 1
 0 <= x115 <= 1
 0 <= x116 <= 1
 0 <= x117 <= 1
 0 <= x118 <= 1
 0 <= x119 <= 1
 0 <= x120 <= 1
 0 <= x121 <= 1
 0 <= x122 <= 1
 0 <= x123 <= 1
 0 <= x124 <= 1
 0 <= x125 <= 1
 0 <= x126 <= 1
 0 <= x127 <= 1
 0 <= x128 <= 1
 0 <= x129 <= 1
 0 <= x130 <= 1
 0 <= x131 <= 1
 0 <= x132 <= 1
 0 <= x133 <= 1
 0 <= x134 <= 1
 0 <= x135 <= 1
 0 <= x136 <= 1
 0 <= x137 <= 1
 0 <= x138 <= 1
 0 <= x139 <= 1
 0 <= x140 <= 1
 0 <= x141 <= 1
 0 <= x142 <= 1
 0 <= x143 <= 1
 0 <= x144 <= 1
 0 <= x145 <= 1
 0 <= x146 <= 1
 0 <= x147 <= 1
 0 <= x148 <= 1
 0 <= x149 <= 1
 0 <= x150 <= 1
 0 <= x151 <= 1
 0 <= x152 <= 1
 0 <= x153 <= 1
 0 <= x154 <= 1
 0 <= x155 <= 1
 0 <= x156 <= 1
 0 <= x157 <= 1
 0 <= x158 <= 1
 0 <= x159 <= 1
 0 <= x160 <= 1
 0 <= x161 <= 1
 0 <= x162 <= 1
 0 <= x163 <= 1
 0 <= x164 <= 1
 0 <= x165 <= 1
 0 <= x166 <= 1
 0 <= x167 <= 1
 0 <= x168 <= 1
 0 <= x169 <= 1
 0 <= x170 <= 1
 0 <= x171 <= 1
 0 <= x172 <= 1
 0 <= x173 <= 1
 0 <= x174 <= 1
 0 <= x175 <= 1
 0 <= x176 <= 1
 0 <= x177 <= 1
 0 <= x178 <= 1
 0 <= x179 <= 1
 0 <= x180 <= 1
 0 <= x181 <= 1
 0 <= x182 <= 1
 0 <= x183 <= 1
 0 <= x184 <= 1
 0 <= x185 <= 1
 0 <= x186 <= 1
 0 <= x187 <= 1
 0 <= x188 <= 1
 0 <= x189 <= 1
 0 <= x190 <= 1
 0 <= x191 <= 1
 0 <= x192 <= 1
 0 <= x193 <= 1
 0 <= x194 <= 1
 0 <= x195 <= 1
 0 <= x196 <= 1
 0 <= x197 <= 1
 0 <= x198 <= 1
 0 <= x199 <= 1
 0 <= x200 <= 1
 0 <= x201 <= 1
 0 <= x202 <= 1
 0 <= x203 <= 1
 0 <= x204 <= 1
 0 <= x205 <= 1
 0 <= x206 <= 1
 0 <= x207 <= 1
 0 <= x208 <= 1
 0 <= x209 <= 1
 0 <= x210 <= 1
 0 <= x211 <= 1
 0 <= x212 <= 1
 0 <= x213 <= 1
 0 <= x214 <= 1
 0 <= x215 <= 1
 0 <= x216 <= 1
 0 <= x217 <= 1
 0 <= x218 <= 1
 0 <= x219 <= 1
 0 <= x220 <= 1
 0 <= x221 <= 1
 0 <= x222 <= 1
 0 <= x223 <= 1
 0 <= x224 <= 1
 0 <= x225 <= 1
 0 <= x226 <= 1
 0 <= x227 <= 1
 0 <= x228 <= 1
 0 <= x229 <= 1
 0 <= x230 <= 1
 0 <= x231 <= 1
 0 <= x232 <= 1
 0 <= x233 <= 1
 0 <= x234 <= 1
 0 <= x235 <= 1
 0 <= x236 <= 1
 0 <= x237 <= 1
 0 <= x238 <= 1
 0 <= x239 <= 1
 0 <= x240 <= 1
 0 <= x241 <= 1
 0 <= x242 <= 1
 0 <= x243 <= 1
 0 <= x244 <= 1
 0 <= x245 <= 1
 0 <= x246 <= 1
 0 <= x247 <= 1
 0 <= x248 <= 1
 0 <= x249 <= 1
 0 <= x250 <= 1
 0 <= x251 <= 1
 0 <= x252 <= 1
 0 <= x253 <= 1
 0 <= x254 <= 1
 0 <= x255 <= 1
 0 <= x256 <= 1
 0 <= x257 <= 1
 0 <= x258 <= 1
 0 <= x259 <= 1
 0 <= x260 <= 1
 0 <= x261 <= 1
 0 <= x262 <= 1
 0 <= x263 <= 1
 0 <= x264 <= 1
 0 <= x265 <= 1
 0 <= x266 <= 1
 0 <= x267 <= 1
 0 <= x268 <= 1
 0 <= x269 <= 1
 0 <= x270 <= 1
 0 <= x271 <= 1
 0 <= x272 <= 1
 0 <= x273 <= 1
 0 <= x274 <= 1
 0 <= x275 <= 1
 0 <= x276 <= 1
 0 <= x277 <= 1
 0 <= x278 <= 1
 0 <= x279 <= 1
 0 <= x280 <= 1
 0 <= x281 <= 1
 0 <= x282 <= 1
 0 <= x283 <= 1
 0 <= x284 <= 1
 0 <= x285 <= 1
 0 <= x286 <= 1
 0 <= x287 <= 1
 0 <= x288 <= 1
 0 <= x289 <= 1
 0 <= x290 <= 1
 0 <= x291 <= 1
 0 <= x292 <= 1
 0 <= x293 <= 1
 0 <= x294 <= 1
 0 <= x295 <= 1
 0 <= x296 <= 1
 0 <= x297 <= 1
 0 <= x298 <= 1
 0 <= x299 <= 1
 0 <= x300 <= 1
 0 <= x301 <= 1
 0 <= x302 <= 1
 0 <= x303 <= 1
 0 <= x304 <= 1
 0 <= x305 <= 1
 0 <= x306 <= 1
 0 <= x307 <= 1
 0 <= x308 <= 1
 0 <= x309 <= 1
 0 <= x310 <= 1
 0 <= x311 <= 1
 0 <= x312 <= 1
 0 <= x313 <= 1
 0 <= x314 <= 1
 0 <= x315 <= 1
 0 <= x316 <= 1
 0 <= x317 <= 1
 0 <= x318 <= 1
 0 <= x319 <= 1
 0 <= x320 <= 1
 0 <= x321 <= 1
 0 <= x322 <= 1
 0 <= x323 <= 1
 0 <= x324 <= 1
 0 <= x325 <= 1
 0 <= x326 <= 1
 0 <= x327 <= 1
 0 <= x328 <= 1
 0 <= x329 <= 1
 0 <= x330 <= 1
 0 <= x331 <= 1
 0 <= x332 <= 1
 0 <= x333 <= 1
 0 <= x334 <= 1
 0 <= x335 <= 1
 0 <= x336 <= 1
 0 <= x337 <= 1
 0 <= x338 <= 1
 0 <= x339 <= 1
 0 <= x340 <= 1
 0 <= x341 <= 1
 0 <= x342 <= 1
 0 <= x343 <= 1
 0 <= x344 <= 1
 0 <= x345 <= 1
 0 <= x346 <= 1
 0 <= x347 <= 1
 0 <= x348 <= 1
 0 <= x349 <= 1
 0 <= x350 <= 1
 0 <= x351 <= 1
 0 <= x352 <= 1
 0 <= x353 <= 1
 0 <= x354 <= 1
 0 <= x355 <= 1
 0 <= x356 <= 1
 0 <= x357 <= 1
 0 <= x358 <= 1
 0 <= x359 <= 1
 0 <= x360 <= 1
 0 <= x361 <= 1
 0 <= x362 <= 1
 0 <= x363 <= 1
 0 <= x364 <= 1
 0 <= x365 <= 1
 0 <= x366 <= 1
 0 <= x367 <= 1
 0 <= x368 <= 1
 0 <= x369 <= 1
 0 <= x370 <= 1
 0 <= x371 <= 1
 0 <= x372 <= 1
 0 <= x373 <= 1
 0 <= x374 <= 1
 0 <= x375 <= 1
 0 <= x376 <= 1
 0 <= x377 <= 1
 0 <= x378 <= 1
 0 <= x379 <= 1
 0 <= x380 <= 1
 0 <= x381 <= 1
 0 <= x382 <= 1
 0 <= x383 <= 1
 0 <= x384 <= 1
 0 <= x385 <= 1
 0 <= x386 <= 1
 0 <= x387 <= 1
 0 <= x388 <= 1
 0 <= x389 <= 1
 0 <= x390 <= 1
 0 <= x391 <= 1
 0 <= x392 <= 1
 0 <= x393 <= 1
 0 <= x394 <= 1
 0 <= x395 <= 1
 0 <= x396 <= 1
 0 <= x397 <= 1
 0 <= x398 <= 1
 0 <= x399 <= 1
 0 <= x400 <= 1
 0 <= x401 <= 1
 0 <= x402 <= 1
 0 <= x403 <= 1
 0 <= x404 <= 1
 0 <= x405 <= 1
 0 <= x406 <= 1
 0 <= x407 <= 1
 0 <= x408 <= 1
 0 <= x409 <= 1
 0 <= x410 <= 1
 0 <= x411 <= 1
 0 <= x412 <= 1
 0 <= x413 <= 1
 0 <= x414 <= 1
 0 <= x415 <= 1
 0 <= x416 <= 1
 0 <= x417 <= 1
 0 <= x418 <= 1
 0 <= x419 <= 1
 0 <= x420 <= 1
 0 <= x421 <= 1
 0 <= x422 <= 1
 0 <= x423 <= 1
 0 <= x424 <= 1
 0 <= x425 <= 1
 0 <= x426 <= 1
 0 <= x427 <= 1
 0 <= x428 <= 1
 0 <= x429 <= 1
 0 <= x430 <= 1
 0 <= x431 <= 1
 0 <= x432 <= 1
 0 <= x433 <= 1
 0 <= x434 <= 1
 0 <= x435 <= 1
 0 <= x436 <= 1
 0 <= x437 <= 1
 0 <= x438 <= 1
 0 <= x439 <= 1
 0 <= x440 <= 1
 0 <= x441 <= 1
 0 <= x442 <= 1
 0 <= x443 <= 1
 0 <= x444 <= 1
 0 <= x445 <= 1
 0 <= x446 <= 1
 0 <= x447 <= 1
 0 <= x448 <= 1
 0 <= x449 <= 1
 0 <= x450 <= 1
 0 <= x451 <= 1
 0 <= x452 <= 1
 0 <= x453 <= 1
 0 <= x454 <= 1
 0 <= x455 <= 1
 0 <= x456 <= 1
 0 <= x457 <= 1
 0 <= x458 <= 1
 0 <= x459 <= 1
 0 <= x460 <= 1
 0 <= x461 <= 1
 0 <= x462 <= 1
 0 <= x463 <= 1
 0 <= x464 <= 1
 0 <= x465 <= 1
 0 <= x466 <= 1
 0 <= x467 <= 1
 0 <= x468 <= 1
 0 <= x469 <= 1
 0 <= x470 <= 1
 0 <= x471 <= 1
 0 <= x472 <= 1
 0 <= x473 <= 1
 0 <= x474 <= 1
 0 <= x475 <= 1
 0 <= x476 <= 1
 0 <= x477 <= 1
 0 <= x478 <= 1
 0 <= x479 <= 1
 0 <= x480 <= 1
 0 <= x481 <= 1
 0 <= x482 <= 1
 0 <= x483 <= 1
 0 <= x484 <= 1
 0 <= x485 <= 1
 0 <= x486 <= 1
 0 <= x487 <= 1
 0 <= x488 <= 1
 0 <= x489 <= 1
 0 <= x490 <= 1
 0 <= x491 <= 1
 0 <= x492 <= 1
 0 <= x493 <= 1
 0 <= x494 <= 1
 0 <= x495 <= 1
 0 <= x496 <= 1
 0 <= x497 <= 1
 0 <= x498 <= 1
 0 <= x499 <= 1
 0 <= x500 <= 1
 0 <= x501 <= 1
 0 <= x502 <= 1
 0 <= x503 <= 1
 0 <= x504 <= 1
 0 <= x505 <= 1
 0 <= x506 <= 1
 0 <= x507 <= 1
 0 <= x508 <= 1
 0 <= x509 <= 1
 0 <= x510 <= 1
 0 <= x511 <= 1
 0 <= x512 <= 1
 0 <= x513 <= 1
 0 <= x514 <= 1
 0 <= x515 <= 1
 0 <= x516 <= 1
 0 <= x517 <= 1
 0 <= x518 <= 1
 0 <= x519 <= 1
 0 <= x520 <= 1
 0 <= x521 <= 1
 0 <= x522 <= 1
 0 <= x523 <= 1
 0 <= x524 <= 1
 0 <= x525 <= 1
 0 <= x526 <= 1
 0 <= x527 <= 1
 0 <= x528 <= 1
 0 <= x529 <= 1
 0 <= x530 <= 1
 0 <= x531 <= 1
 0 <= x532 <= 1
 0 <= x533 <= 1
 0 <= x534 <= 1
 0 <= x535 <= 1
 0 <= x536 <= 1
 0 <= x537 <= 1
 0 <= x538 <= 1
 0 <= x539 <= 1
 0 <= x540 <= 1
 0 <= x541 <= 1
 0 <= x542 <= 1
 0 <= x543 <= 1
 0 <= x544 <= 1
 0 <= x545 <= 1
 0 <= x546 <= 1
 0 <= x547 <= 1
 0 <= x548 <= 1
 0 <= x549 <= 1
 0 <= x550 <= 1
 0 <= x551 <= 1
 0 <= x552 <= 1
 0 <= x553 <= 1
 0 <= x554 <= 1
 0 <= x555 <= 1
 0 <= x556 <= 1
 0 <= x557 <= 1
 0 <= x558 <= 1
 0 <= x559 <= 1
 0 <= x560 <= 1
 0 <= x561 <= 1
 0 <= x562 <= 1
 0 <= x563 <= 1
 0 <= x564 <= 1
 0 <= x565 <= 1
 0 <= x566 <= 1
 0 <= x567 <= 1
 0 <= x568 <= 1
 0 <= x569 <= 1
 0 <= x570 <= 1
 0 <= x571 <= 1
 0 <= x572 <= 1
 0 <= x573 <= 1
 0 <= x574 <= 1
 0 <= x575 <= 1
 0 <= x576 <= 1
 0 <= x577 <= 1
 0 <= x578 <= 1
 0 <= x579 <= 1
 0 <= x580 <= 1
 0 <= x581 <= 1
 0 <= x582 <= 1
 0 <= x583 <= 1
 0 <= x584 <= 1
 0 <= x585 <= 1
 0 <= x586 <= 1
 0 <= x587 <= 1
 0 <= x588 <= 1
 0 <= x589 <= 1
 0 <= x590 <= 1
 0 <= x591 <= 1
 0 <= x592 <= 1
 0 <= x593 <= 1
 0 <= x594 <= 1
 0 <= x595 <= 1
 0 <= x596 <= 1
 0 <= x597 <= 1
 0 <= x598 <= 1
 0 <= x599 <= 1
 0 <= x600 <= 1
 0 <= x601 <= 1
 0 <= x602 <= 1
 0 <= x603 <= 1
 0 <= x604 <= 1
 0 <= x605 <= 1
 0 <= x606 <= 1
 0 <= x607 <= 1
 0 <= x608 <= 1
 0 <= x609 <= 1
 0 <= x610 <= 1
 0 <= x611 <= 1
 0 <= x612 <= 1
 0 <= x613 <= 1
 0 <= x614 <= 1
 0 <= x615 <= 1
 0 <= x616 <= 1
 0 <= x617 <= 1
 0 <= x618 <= 1
 0 <= x619 <= 1
 0 <= x620 <= 1
 0 <= x621 <= 1
 0 <= x622 <= 1
 0 <= x623 <= 1
 0 <= x624 <= 1
 0 <= x625 <= 1
 0 <= x626 <= 1
 0 <= x627 <= 1
 0 <= x628 <= 1
 0 <= x629 <= 1
 0 <= x630 <= 1
 0 <= x631 <= 1
 0 <= x632 <= 1
 0 <= x633 <= 1
 0 <= x634 <= 1
 0 <= x635 <= 1
 0 <= x636 <= 1
 0 <= x637 <= 1
 0 <= x638 <= 1
 0 <= x639 <= 1
 0 <= x640 <= 1
 0 <= x641 <= 1
 0 <= x642 <= 1
 0 <= x643 <= 1
 0 <= x644 <= 1
 0 <= x645 <= 1
 0 <= x646 <= 1
 0 <= x647 <= 1
 0 <= x648 <= 1
 0 <= x649 <= 1
 0 <= x650 <= 1
 0 <= x651 <= 1
 0 <= x652 <= 1
 0 <= x653 <= 1
 0 <= x654 <= 1
 0 <= x655 <= 1
 0 <= x656 <= 1
 0 <= x657 <= 1
 0 <= x658 <= 1
 0 <= x659 <= 1
 0 <= x660 <= 1
Binaries
 x601  x602  x603  x604  x605  x606  x607  x608  x609  x610  x611  x612  x613 
 x614  x615  x616  x617  x618  x619  x620  x621  x622  x623  x624  x625  x626 
 x627  x628  x629  x630  x631  x632  x633  x634  x635  x636  x637  x638  x639 
 x640  x641  x642  x643  x644  x645  x646  x647  x648  x649  x650  x651  x652 
 x653  x654  x655  x656  x657  x658  x659  x660 
End
